(set-option :print-success false)
(set-logic QF_UF)
(declare-sort x112 0)
(declare-sort x113 0)
(declare-fun x72 () x113)
(declare-fun x142 () x113)
(declare-fun x150 (x113 x113) x113)
(declare-fun x125 () x113)
(declare-fun x92 () x113)
(declare-fun x14 () x113)
(assert (not (and (= x92 (x150 x125 x142)) (and (= (x150 x142 x142) x125) (and (= x72 (x150 x14 x14)) (= x142 (x150 x14 x72)))))))
(assert (not (and (= x14 (x150 x72 x92)) (and (and (= x92 (x150 x125 x142)) (= (x150 x125 x125) x142)) (= x72 (x150 x92 x92))))))
(assert (not (and (= x142 (x150 x14 x92)) (and (and (= (x150 x125 x72) x92) (= x72 (x150 x125 x125))) (= x14 (x150 x92 x92))))))
(assert (not (and (and (and (= x72 (x150 x142 x142)) (= x125 (x150 x142 x72))) (= (x150 x125 x125) x14)) (= x92 (x150 x14 x125)))))
(assert (not (and (and (= (x150 x72 x72) x125) (and (= (x150 x92 x92) x14) (= (x150 x92 x14) x72))) (= x142 (x150 x125 x72)))))
(assert (not (and (= x142 (x150 x72 x14)) (and (and (= (x150 x125 x92) x14) (= (x150 x125 x125) x92)) (= x72 (x150 x14 x14))))))
(assert (and (and (not (= x125 (x150 x125 x125))) (and (and (not (= x72 (x150 x72 x72))) (not (= x14 (x150 x14 x14)))) (not (= x142 (x150 x142 x142))))) (not (= (x150 x92 x92) x92))))
(assert (not (and (and (and (= x142 (x150 x125 x72)) (= (x150 x125 x125) x72)) (= x14 (x150 x142 x142))) (= x92 (x150 x14 x142)))))
(assert (not (and (= (x150 x72 x125) x92) (and (and (= (x150 x14 x142) x125) (= x142 (x150 x14 x14))) (= x72 (x150 x125 x125))))))
(assert (not (and (and (and (= (x150 x14 x125) x72) (= x125 (x150 x14 x14))) (= x92 (x150 x72 x72))) (= x142 (x150 x92 x72)))))
(assert (not (and (= (x150 x142 x125) x14) (and (= x142 (x150 x125 x125)) (and (= x125 (x150 x72 x92)) (= x92 (x150 x72 x72)))))))
(assert (let ((x129 (x150 x72 x72)) (x29 (x150 x92 x92)) (x82 (x150 x14 x14)) (x102 (x150 x142 x142)) (x43 (x150 x125 x125))) (and (and (or (= x29 x125) (or (or (or (= x125 x129) (= x125 x82)) (= x102 x125)) (= x125 x43))) (and (or (= x142 x29) (or (or (= x102 x142) (or (= x82 x142) (= x129 x142))) (= x43 x142))) (and (or (= x29 x14) (or (= x14 x43) (or (or (= x82 x14) (= x14 x129)) (= x102 x14)))) (or (or (or (or (= x72 x129) (= x82 x72)) (= x72 x102)) (= x72 x43)) (= x72 x29))))) (or (or (= x43 x92) (or (= x92 x102) (or (= x92 x82) (= x129 x92)))) (= x92 x29)))))
(assert (not (and (and (= (x150 x72 x72) x125) (and (= x72 (x150 x92 x142)) (= (x150 x92 x92) x142))) (= (x150 x125 x72) x14))))
(assert (not (and (= x14 (x150 x92 x72)) (and (= x92 (x150 x72 x72)) (and (= (x150 x142 x125) x72) (= (x150 x142 x142) x125))))))
(assert (not (and (= x72 (x150 x125 x14)) (and (and (= (x150 x92 x92) x142) (= x14 (x150 x92 x142))) (= (x150 x14 x14) x125)))))
(assert (not (and (and (and (= (x150 x125 x92) x14) (= x92 (x150 x125 x125))) (= (x150 x14 x14) x142)) (= (x150 x142 x14) x72))))
(assert (not (and (= x142 (x150 x125 x92)) (and (and (= (x150 x72 x72) x14) (= (x150 x72 x14) x92)) (= x125 (x150 x92 x92))))))
(assert (not (and (= (x150 x142 x14) x125) (and (= (x150 x14 x14) x142) (and (= x14 (x150 x72 x92)) (= (x150 x72 x72) x92))))))
(assert (not (and (= x14 (x150 x72 x125)) (and (and (= (x150 x92 x142) x125) (= x142 (x150 x92 x92))) (= x72 (x150 x125 x125))))))
(assert (not (and (= x92 (x150 x14 x142)) (and (and (= (x150 x72 x125) x142) (= x125 (x150 x72 x72))) (= (x150 x142 x142) x14)))))
(assert (not (and (and (and (= x92 (x150 x72 x72)) (= x142 (x150 x72 x92))) (= (x150 x142 x142) x125)) (= (x150 x125 x142) x14))))
(assert (not (and (= (x150 x142 x14) x72) (and (= x142 (x150 x14 x14)) (and (= (x150 x92 x92) x125) (= (x150 x92 x125) x14))))))
(assert (not (and (and (= (x150 x125 x125) x14) (and (= x142 (x150 x72 x72)) (= (x150 x72 x142) x125))) (= x92 (x150 x14 x125)))))
(assert (not (and (= (x150 x125 x92) x14) (and (= (x150 x92 x92) x125) (and (= (x150 x72 x142) x92) (= (x150 x72 x72) x142))))))
(assert (not (and (= x72 (x150 x142 x92)) (and (and (= (x150 x14 x125) x92) (= x125 (x150 x14 x14))) (= (x150 x92 x92) x142)))))
(assert (not (and (and (= (x150 x14 x14) x142) (and (= x72 (x150 x125 x125)) (= x14 (x150 x125 x72)))) (= x92 (x150 x142 x14)))))
(assert (not (and (= (x150 x125 x14) x92) (and (and (= x142 (x150 x72 x72)) (= x14 (x150 x72 x142))) (= (x150 x14 x14) x125)))))
(assert (not (and (= (x150 x92 x72) x14) (and (= x92 (x150 x72 x72)) (and (= x142 (x150 x125 x125)) (= x72 (x150 x125 x142)))))))
(assert (let ((x29 (x150 x92 x72)) (x43 (x150 x125 x72)) (x93 (x150 x125 x142)) (x86 (x150 x72 x142)) (x80 (x150 x142 x92)) (x21 (x150 x125 x14)) (x34 (x150 x142 x142)) (x5 (x150 x72 x125)) (x96 (x150 x14 x142)) (x70 (x150 x14 x125)) (x118 (x150 x72 x14)) (x136 (x150 x92 x142)) (x108 (x150 x14 x92)) (x129 (x150 x72 x72)) (x4 (x150 x125 x125)) (x116 (x150 x92 x92)) (x16 (x150 x142 x14)) (x27 (x150 x72 x92)) (x111 (x150 x14 x14)) (x60 (x150 x92 x125)) (x145 (x150 x92 x14)) (x102 (x150 x142 x72)) (x48 (x150 x125 x92)) (x82 (x150 x14 x72)) (x91 (x150 x142 x125))) (and (and (and (and (and (and (not (= x136 x34)) (and (not (= x34 x93)) (and (not (= x96 x136)) (and (and (and (not (= x86 x136)) (and (not (= x93 x86)) (and (not (= x96 x86)) (not (= x34 x86))))) (not (= x96 x34))) (not (= x93 x96)))))) (not (= x136 x93))) (and (and (and (and (and (and (not (= x82 x43)) (and (not (= x102 x82)) (and (not (= x129 x29)) (and (and (not (= x82 x129)) (not (= x102 x129))) (not (= x129 x43)))))) (not (= x29 x82))) (not (= x43 x102))) (not (= x102 x29))) (not (= x29 x43))) (and (not (= x145 x21)) (and (not (= x145 x16)) (and (not (= x16 x21)) (and (not (= x145 x111)) (and (not (= x111 x21)) (and (and (not (= x145 x118)) (and (not (= x118 x21)) (and (not (= x111 x118)) (not (= x16 x118))))) (not (= x111 x16)))))))))) (and (not (= x4 x60)) (and (not (= x60 x91)) (and (and (and (not (= x4 x70)) (and (not (= x91 x70)) (and (not (= x60 x5)) (and (not (= x4 x5)) (and (not (= x70 x5)) (not (= x91 x5))))))) (not (= x70 x60))) (not (= x91 x4)))))) (and (and (not (= x80 x116)) (and (and (not (= x108 x116)) (and (not (= x108 x48)) (and (and (and (not (= x48 x27)) (and (not (= x27 x108)) (not (= x27 x80)))) (not (= x27 x116))) (not (= x108 x80))))) (not (= x48 x80)))) (not (= x116 x48)))) (and (and (and (and (not (= x93 x48)) (and (not (= x93 x4)) (and (and (and (not (= x21 x93)) (and (and (and (not (= x43 x21)) (not (= x43 x93))) (not (= x4 x43))) (not (= x43 x48)))) (not (= x4 x21))) (not (= x21 x48))))) (not (= x4 x48))) (and (and (and (and (and (and (and (and (and (and (not (= x82 x70)) (and (not (= x82 x111)) (not (= x96 x82)))) (not (= x108 x82))) (not (= x96 x111))) (not (= x111 x70))) (not (= x108 x111))) (not (= x96 x70))) (not (= x108 x96))) (not (= x70 x108))) (and (and (not (= x86 x27)) (and (and (and (and (and (and (and (not (= x118 x129)) (not (= x129 x86))) (not (= x5 x129))) (not (= x27 x129))) (not (= x118 x86))) (not (= x5 x118))) (not (= x118 x27))) (not (= x86 x5)))) (not (= x27 x5)))) (and (not (= x91 x80)) (and (and (not (= x34 x91)) (and (not (= x80 x16)) (and (and (and (not (= x80 x102)) (and (and (not (= x16 x102)) (not (= x34 x102))) (not (= x102 x91)))) (not (= x16 x34))) (not (= x16 x91))))) (not (= x80 x34)))))) (and (and (and (and (not (= x145 x116)) (and (not (= x60 x145)) (and (not (= x136 x145)) (and (not (= x29 x116)) (and (not (= x60 x29)) (and (not (= x145 x29)) (not (= x136 x29)))))))) (not (= x136 x60))) (not (= x116 x136))) (not (= x116 x60)))))))
(assert (not (and (= (x150 x72 x142) x92) (and (and (= x125 (x150 x14 x14)) (= (x150 x14 x125) x142)) (= (x150 x142 x142) x72)))))
(assert (let ((x96 (x150 x142 x14)) (x91 (x150 x125 x142)) (x16 (x150 x14 x142)) (x70 (x150 x125 x14)) (x60 (x150 x125 x92)) (x29 (x150 x72 x92)) (x145 (x150 x14 x92)) (x34 (x150 x142 x142)) (x27 (x150 x92 x72)) (x86 (x150 x142 x72)) (x43 (x150 x72 x125)) (x93 (x150 x142 x125)) (x4 (x150 x125 x125)) (x108 (x150 x92 x14)) (x5 (x150 x125 x72)) (x48 (x150 x92 x125)) (x136 (x150 x142 x92)) (x129 (x150 x72 x72)) (x118 (x150 x14 x72)) (x21 (x150 x14 x125)) (x80 (x150 x92 x142)) (x102 (x150 x72 x142)) (x111 (x150 x14 x14)) (x82 (x150 x72 x14)) (x116 (x150 x92 x92))) (and (and (and (and (and (and (and (and (or (or (or (= x129 x142) (or (= x129 x14) (= x129 x72))) (= x125 x129)) (= x129 x92)) (or (= x82 x92) (or (= x125 x82) (or (= x82 x142) (or (= x82 x72) (= x14 x82)))))) (or (or (or (= x102 x142) (or (= x102 x14) (= x72 x102))) (= x125 x102)) (= x92 x102))) (or (or (or (= x142 x43) (or (= x43 x72) (= x43 x14))) (= x43 x125)) (= x43 x92))) (or (= x29 x92) (or (or (= x142 x29) (or (= x14 x29) (= x72 x29))) (= x29 x125)))) (and (or (= x145 x92) (or (= x125 x145) (or (or (= x145 x14) (= x145 x72)) (= x142 x145)))) (and (and (or (or (= x125 x16) (or (= x142 x16) (or (= x16 x14) (= x72 x16)))) (= x92 x16)) (and (or (= x92 x111) (or (= x125 x111) (or (= x142 x111) (or (= x111 x72) (= x111 x14))))) (or (= x118 x92) (or (= x118 x125) (or (= x118 x142) (or (= x118 x72) (= x14 x118))))))) (or (or (= x125 x21) (or (= x142 x21) (or (= x14 x21) (= x72 x21)))) (= x21 x92))))) (and (or (or (or (= x142 x136) (or (= x72 x136) (= x136 x14))) (= x136 x125)) (= x92 x136)) (and (or (= x93 x92) (or (= x125 x93) (or (= x93 x142) (or (= x14 x93) (= x72 x93))))) (and (or (or (= x125 x34) (or (or (= x34 x14) (= x72 x34)) (= x34 x142))) (= x34 x92)) (and (or (or (or (or (= x96 x14) (= x96 x72)) (= x142 x96)) (= x96 x125)) (= x92 x96)) (or (= x92 x86) (or (or (= x86 x142) (or (= x14 x86) (= x86 x72))) (= x125 x86)))))))) (and (and (and (and (or (or (= x125 x70) (or (= x142 x70) (or (= x70 x72) (= x14 x70)))) (= x70 x92)) (or (or (= x125 x5) (or (= x5 x142) (or (= x5 x72) (= x5 x14)))) (= x92 x5))) (or (= x91 x92) (or (= x91 x125) (or (or (= x91 x14) (= x72 x91)) (= x142 x91))))) (or (= x4 x92) (or (or (or (= x4 x14) (= x4 x72)) (= x142 x4)) (= x4 x125)))) (or (= x60 x92) (or (or (= x142 x60) (or (= x60 x72) (= x14 x60))) (= x125 x60))))) (and (and (and (or (or (or (= x142 x80) (or (= x14 x80) (= x72 x80))) (= x125 x80)) (= x92 x80)) (and (or (or (= x125 x27) (or (= x27 x142) (or (= x27 x72) (= x27 x14)))) (= x92 x27)) (or (or (= x125 x108) (or (or (= x108 x72) (= x14 x108)) (= x142 x108))) (= x92 x108)))) (or (= x48 x92) (or (= x125 x48) (or (= x48 x142) (or (= x14 x48) (= x72 x48)))))) (or (= x116 x92) (or (or (or (= x14 x116) (= x116 x72)) (= x116 x142)) (= x125 x116)))))))
(assert (not (and (= x125 (x150 x92 x72)) (and (and (= x72 (x150 x14 x142)) (= x142 (x150 x14 x14))) (= x92 (x150 x72 x72))))))
(assert (not (and (= (x150 x142 x14) x125) (and (= (x150 x14 x14) x142) (and (= x14 (x150 x92 x72)) (= (x150 x92 x92) x72))))))
(assert (not (and (= (x150 x72 x92) x125) (and (and (= x14 (x150 x142 x142)) (= (x150 x142 x14) x92)) (= x72 (x150 x92 x92))))))
(assert (let ((x108 (x150 x14 x92)) (x55 (x150 x92 x14)) (x143 (x150 x92 x125)) (x44 (x150 x92 x92)) (x29 (x150 x72 x125)) (x118 (x150 x72 x92)) (x104 (x150 x142 x142)) (x21 (x150 x142 x72)) (x102 (x150 x72 x14)) (x60 (x150 x14 x142)) (x82 (x150 x72 x72)) (x27 (x150 x14 x125)) (x43 (x150 x72 x142)) (x145 (x150 x125 x72)) (x89 (x150 x125 x125)) (x17 (x150 x125 x92)) (x154 (x150 x125 x142)) (x135 (x150 x92 x142)) (x40 (x150 x142 x92)) (x16 (x150 x14 x72)) (x86 (x150 x92 x72)) (x153 (x150 x125 x14)) (x4 (x150 x14 x14)) (x50 (x150 x142 x125)) (x116 (x150 x142 x14))) (let ((x90 (= x125 x4)) (x6 (= x92 x50)) (x10 (= x125 x104)) (x152 (= x92 x102)) (x5 (= x102 x72)) (x73 (= x86 x92)) (x2 (= x108 x142)) (x144 (= x72 x60)) (x124 (= x21 x142)) (x148 (= x153 x72)) (x36 (= x108 x125)) (x63 (= x14 x44)) (x74 (= x72 x17)) (x67 (= x40 x142)) (x57 (= x145 x14)) (x149 (= x125 x60)) (x121 (= x125 x50)) (x119 (= x125 x135)) (x35 (= x92 x89)) (x103 (= x142 x17)) (x107 (= x14 x89)) (x41 (= x14 x104)) (x151 (= x92 x27)) (x51 (= x125 x40)) (x79 (= x60 x14)) (x106 (= x50 x14)) (x28 (= x14 x143)) (x95 (= x14 x108)) (x18 (= x27 x142)) (x48 (= x4 x14)) (x140 (= x29 x72)) (x25 (= x40 x72)) (x84 (= x142 x4)) (x137 (= x27 x125)) (x45 (= x153 x125)) (x115 (= x118 x125)) (x37 (= x116 x92)) (x81 (= x72 x154)) (x97 (= x43 x72)) (x158 (= x14 x135)) (x156 (= x50 x72)) (x123 (= x17 x14)) (x129 (= x72 x82)) (x33 (= x55 x14)) (x53 (= x17 x92)) (x131 (= x118 x14)) (x88 (= x72 x44)) (x126 (= x72 x21)) (x64 (= x125 x116)) (x61 (= x55 x92)) (x87 (= x60 x92)) (x52 (= x14 x40)) (x127 (= x142 x43)) (x100 (= x104 x92)) (x42 (= x142 x154)) (x139 (= x89 x142)) (x46 (= x125 x89)) (x136 (= x16 x72)) (x68 (= x125 x29)) (x54 (= x50 x142)) (x70 (= x4 x72)) (x141 (= x135 x72)) (x69 (= x60 x142)) (x75 (= x86 x14)) (x19 (= x116 x72)) (x117 (= x102 x142)) (x120 (= x72 x89)) (x24 (= x153 x142)) (x96 (= x82 x142)) (x32 (= x108 x92)) (x15 (= x43 x92)) (x157 (= x125 x44)) (x34 (= x125 x82)) (x56 (= x29 x142)) (x78 (= x72 x86)) (x1 (= x145 x125)) (x11 (= x142 x55)) (x26 (= x143 x72)) (x80 (= x14 x102)) (x146 (= x72 x27)) (x71 (= x153 x14)) (x23 (= x125 x154)) (x49 (= x142 x16)) (x76 (= x142 x145)) (x62 (= x55 x125)) (x101 (= x154 x92)) (x93 (= x92 x82)) (x31 (= x72 x55)) (x133 (= x92 x145)) (x7 (= x143 x142)) (x22 (= x92 x40)) (x83 (= x125 x86)) (x122 (= x14 x116)) (x98 (= x142 x118)) (x130 (= x21 x14)) (x30 (= x104 x72)) (x94 (= x118 x92)) (x8 (= x43 x14)) (x38 (= x21 x125)) (x111 (= x14 x82)) (x20 (= x108 x72)) (x147 (= x43 x125)) (x109 (= x92 x16)) (x12 (= x72 x118)) (x85 (= x104 x142)) (x65 (= x92 x153)) (x3 (= x14 x154)) (x47 (= x29 x14)) (x132 (= x143 x125)) (x105 (= x92 x44)) (x58 (= x92 x143)) (x134 (= x44 x142)) (x155 (= x125 x16)) (x9 (= x142 x86)) (x13 (= x142 x135)) (x66 (= x125 x17)) (x91 (= x14 x16)) (x39 (= x116 x142)) (x99 (= x4 x92)) (x59 (= x92 x135)) (x114 (= x21 x92)) (x128 (= x72 x145)) (x77 (= x29 x92)) (x110 (= x27 x14)) (x138 (= x102 x125))) (and (and (and (and (and (and (and (or (or (or x38 (or x155 x34)) x1) x83) (or (or (or x147 (or x138 x34)) x68) x115)) (and (and (or (or x56 (or (or x117 x96) x127)) x98) (or (or x76 (or (or x96 x49) x124)) x9)) (and (and (or x131 (or x47 (or (or x111 x80) x8))) (or (or (or (or x111 x91) x130) x57) x75)) (and (or (or x128 (or x126 (or x136 x129))) x78) (or (or x140 (or (or x5 x129) x97)) x12))))) (and (or (or (or x15 (or x93 x152)) x77) x94) (or (or x133 (or (or x109 x93) x114)) x73))) (and (and (or (or x151 (or x87 (or x99 x109))) x32) (or (or (or (or x152 x99) x37) x65) x61)) (and (and (and (or (or x24 (or (or x84 x117) x39)) x11) (or (or (or (or x84 x49) x69) x18) x2)) (and (and (or (or (or x19 (or x5 x70)) x148) x31) (or (or (or x144 (or x136 x70)) x146) x20)) (and (or x95 (or x110 (or x79 (or x48 x91)))) (or x33 (or (or x122 (or x48 x80)) x71))))) (and (or x36 (or x137 (or (or x155 x90) x149))) (or x62 (or (or (or x90 x138) x64) x45)))))) (and (and (or (or (or x100 (or x87 x15)) x101) x59) (or (or x6 (or (or x37 x114) x100)) x22)) (and (and (and (and (or (or x3 (or (or x8 x79) x41)) x158) (or (or (or x41 (or x130 x122)) x106) x52)) (and (or x141 (or (or (or x97 x144) x30) x81)) (or (or (or (or x19 x126) x30) x156) x25))) (and (or x67 (or (or (or x39 x124) x85) x54)) (or (or x42 (or (or x127 x69) x85)) x13))) (and (or (or (or (or x147 x149) x10) x23) x119) (or (or (or x10 (or x38 x64)) x121) x51))))) (and (and (or (or (or x101 (or x65 x133)) x35) x53) (or x58 (or x35 (or (or x77 x151) x6)))) (and (and (and (or x103 (or x139 (or x42 (or x24 x76)))) (or (or (or x54 (or x56 x18)) x139) x7)) (and (and (or x123 (or x107 (or (or x57 x71) x3))) (or (or x107 (or x106 (or x110 x47))) x28)) (and (or x74 (or x120 (or x81 (or x128 x148)))) (or x26 (or (or x156 (or x140 x146)) x120))))) (and (or (or (or x23 (or x45 x1)) x46) x66) (or x132 (or x46 (or x121 (or x68 x137)))))))) (and (and (or x105 (or (or (or x32 x94) x22) x53)) (or x105 (or x58 (or (or x73 x61) x59)))) (and (and (or (or (or (or x83 x62) x119) x132) x157) (or x157 (or x66 (or (or x115 x36) x51)))) (and (and (or x134 (or (or (or x2 x98) x67) x103)) (or (or (or (or x11 x9) x13) x7) x134)) (and (and (or x88 (or (or (or x12 x20) x25) x74)) (or x88 (or (or x141 (or x31 x78)) x26))) (and (or (or (or (or x95 x131) x52) x123) x63) (or (or x28 (or x158 (or x75 x33))) x63))))))))))
(assert (not (and (and (and (= x72 (x150 x125 x142)) (= x142 (x150 x125 x125))) (= (x150 x72 x72) x14)) (= (x150 x14 x72) x92))))
(assert (not (and (= (x150 x14 x92) x72) (and (= x14 (x150 x92 x92)) (and (= x92 (x150 x125 x142)) (= (x150 x125 x125) x142))))))
(assert (not (and (= (x150 x14 x125) x142) (and (and (= x125 (x150 x92 x72)) (= (x150 x92 x92) x72)) (= x14 (x150 x125 x125))))))
(assert (not (and (and (and (= x72 (x150 x14 x14)) (= x142 (x150 x14 x72))) (= x92 (x150 x142 x142))) (= (x150 x92 x142) x125))))
(assert (not (and (= (x150 x14 x142) x125) (and (= (x150 x142 x142) x14) (and (= x142 (x150 x92 x72)) (= (x150 x92 x92) x72))))))
(assert (not (and (= (x150 x92 x72) x125) (and (and (= (x150 x142 x142) x14) (= (x150 x142 x14) x72)) (= (x150 x72 x72) x92)))))
(assert (not (and (= (x150 x14 x92) x125) (and (= (x150 x92 x92) x14) (and (= (x150 x72 x142) x92) (= (x150 x72 x72) x142))))))
(assert (not (and (= (x150 x142 x125) x72) (and (and (= (x150 x14 x14) x92) (= (x150 x14 x92) x125)) (= x142 (x150 x125 x125))))))
(assert (not (and (= (x150 x125 x142) x72) (and (= x125 (x150 x142 x142)) (and (= (x150 x14 x92) x142) (= x92 (x150 x14 x14)))))))
(assert (not (and (and (and (= x72 (x150 x125 x92)) (= (x150 x125 x125) x92)) (= x14 (x150 x72 x72))) (= (x150 x14 x72) x142))))
(assert (not (and (and (= (x150 x92 x92) x125) (and (= (x150 x14 x72) x92) (= x72 (x150 x14 x14)))) (= (x150 x125 x92) x142))))
(assert (not (and (= x142 (x150 x92 x125)) (and (= x92 (x150 x125 x125)) (and (= x125 (x150 x72 x14)) (= x14 (x150 x72 x72)))))))
(assert (not (and (and (= (x150 x72 x72) x14) (and (= (x150 x142 x92) x72) (= x92 (x150 x142 x142)))) (= x125 (x150 x14 x72)))))
(assert (not (and (and (and (= (x150 x125 x125) x72) (= (x150 x125 x72) x14)) (= x92 (x150 x14 x14))) (= x142 (x150 x92 x14)))))
(assert (not (and (and (= x142 (x150 x92 x92)) (and (= (x150 x125 x72) x92) (= x72 (x150 x125 x125)))) (= x14 (x150 x142 x92)))))
(assert (not (and (and (= (x150 x14 x14) x92) (and (= x14 (x150 x142 x125)) (= (x150 x142 x142) x125))) (= x72 (x150 x92 x14)))))
(assert (not (and (and (and (= x14 (x150 x92 x92)) (= x125 (x150 x92 x14))) (= x142 (x150 x125 x125))) (= x72 (x150 x142 x125)))))
(assert (not (and (= (x150 x92 x14) x125) (and (and (= (x150 x72 x142) x14) (= (x150 x72 x72) x142)) (= x92 (x150 x14 x14))))))
(assert (not (and (and (= x72 (x150 x92 x92)) (and (= (x150 x14 x125) x92) (= x125 (x150 x14 x14)))) (= (x150 x72 x92) x142))))
(assert (not (and (= x125 (x150 x142 x72)) (and (= (x150 x72 x72) x142) (and (= x14 (x150 x92 x92)) (= x72 (x150 x92 x14)))))))
(assert (not (and (and (= (x150 x72 x72) x142) (and (= x125 (x150 x14 x14)) (= (x150 x14 x125) x72))) (= x92 (x150 x142 x72)))))
(assert (not (and (= (x150 x142 x92) x125) (and (= (x150 x92 x92) x142) (and (= x72 (x150 x14 x14)) (= x92 (x150 x14 x72)))))))
(assert (not (and (and (and (= (x150 x72 x72) x92) (= x142 (x150 x72 x92))) (= (x150 x142 x142) x14)) (= x125 (x150 x14 x142)))))
(assert (not (and (= x14 (x150 x72 x142)) (and (and (= (x150 x125 x92) x142) (= x92 (x150 x125 x125))) (= x72 (x150 x142 x142))))))
(assert (not (and (and (and (= (x150 x125 x142) x14) (= x142 (x150 x125 x125))) (= (x150 x14 x14) x92)) (= x72 (x150 x92 x14)))))
(assert (not (and (and (= (x150 x72 x72) x92) (and (= x14 (x150 x125 x125)) (= (x150 x125 x14) x72))) (= x142 (x150 x92 x72)))))
(assert (not (and (= (x150 x72 x92) x14) (and (= x72 (x150 x92 x92)) (and (= x92 (x150 x142 x125)) (= (x150 x142 x142) x125))))))
(assert (not (and (and (and (= (x150 x125 x125) x14) (= x142 (x150 x125 x14))) (= x72 (x150 x142 x142))) (= x92 (x150 x72 x142)))))
(assert (not (and (= x142 (x150 x14 x72)) (and (and (= (x150 x92 x92) x125) (= x72 (x150 x92 x125))) (= (x150 x72 x72) x14)))))
(assert (not (and (= x14 (x150 x72 x125)) (and (= x72 (x150 x125 x125)) (and (= (x150 x142 x92) x125) (= (x150 x142 x142) x92))))))
(assert (not (and (and (and (= (x150 x125 x92) x142) (= (x150 x125 x125) x92)) (= x14 (x150 x142 x142))) (= x72 (x150 x14 x142)))))
(assert (not (and (= (x150 x142 x72) x92) (and (and (= (x150 x125 x125) x14) (= (x150 x125 x14) x72)) (= (x150 x72 x72) x142)))))
(assert (not (and (and (= x72 (x150 x142 x142)) (and (= (x150 x92 x14) x142) (= x14 (x150 x92 x92)))) (= (x150 x72 x142) x125))))
(assert (not (and (= x72 (x150 x125 x92)) (and (and (= x92 (x150 x142 x14)) (= x14 (x150 x142 x142))) (= (x150 x92 x92) x125)))))
(assert (not (and (= (x150 x72 x92) x142) (and (= (x150 x92 x92) x72) (and (= x92 (x150 x125 x14)) (= x14 (x150 x125 x125)))))))
(assert (not (and (= x92 (x150 x72 x125)) (and (and (= (x150 x142 x142) x14) (= (x150 x142 x14) x125)) (= x72 (x150 x125 x125))))))
(assert (not (and (and (and (= x92 (x150 x142 x125)) (= (x150 x142 x142) x125)) (= x14 (x150 x92 x92))) (= (x150 x14 x92) x72))))
(assert (not (and (= x92 (x150 x142 x14)) (and (and (= (x150 x72 x125) x14) (= x125 (x150 x72 x72))) (= x142 (x150 x14 x14))))))
(assert (not (and (and (and (= (x150 x125 x125) x92) (= (x150 x125 x92) x72)) (= x142 (x150 x72 x72))) (= (x150 x142 x72) x14))))
(assert (not (and (= (x150 x92 x125) x72) (and (and (= (x150 x14 x14) x142) (= x125 (x150 x14 x142))) (= x92 (x150 x125 x125))))))
(assert (not (and (and (= x142 (x150 x72 x72)) (and (= (x150 x14 x14) x92) (= x72 (x150 x14 x92)))) (= x125 (x150 x142 x72)))))
(assert (not (and (= (x150 x14 x142) x72) (and (= x14 (x150 x142 x142)) (and (= (x150 x92 x125) x142) (= (x150 x92 x92) x125))))))
(assert (not (and (= (x150 x92 x142) x125) (and (and (= (x150 x72 x14) x142) (= (x150 x72 x72) x14)) (= (x150 x142 x142) x92)))))
(assert (not (and (and (= (x150 x14 x14) x125) (and (= (x150 x92 x92) x72) (= x14 (x150 x92 x72)))) (= x142 (x150 x125 x14)))))
(assert (not (and (= x142 (x150 x14 x125)) (and (= x14 (x150 x125 x125)) (and (= x125 (x150 x72 x92)) (= (x150 x72 x72) x92))))))
(assert (not (and (and (and (= x125 (x150 x142 x142)) (= (x150 x142 x125) x72)) (= (x150 x72 x72) x14)) (= (x150 x14 x72) x92))))
(assert (not (and (and (and (= x72 (x150 x92 x92)) (= x125 (x150 x92 x72))) (= (x150 x125 x125) x142)) (= (x150 x142 x125) x14))))
(assert (not (and (and (= (x150 x14 x14) x72) (and (= x142 (x150 x125 x125)) (= (x150 x125 x142) x14))) (= x92 (x150 x72 x14)))))
(assert (not (and (and (and (= (x150 x72 x72) x125) (= x92 (x150 x72 x125))) (= (x150 x92 x92) x14)) (= (x150 x14 x92) x142))))
(assert (not (and (and (and (= x125 (x150 x142 x142)) (= x14 (x150 x142 x125))) (= (x150 x14 x14) x72)) (= x92 (x150 x72 x14)))))
(assert (not (and (= (x150 x125 x142) x72) (and (and (= x142 (x150 x92 x14)) (= (x150 x92 x92) x14)) (= x125 (x150 x142 x142))))))
(assert (not (and (= x125 (x150 x92 x14)) (and (and (= (x150 x142 x72) x14) (= x72 (x150 x142 x142))) (= (x150 x14 x14) x92)))))
(assert (not (and (= x125 (x150 x14 x92)) (and (and (= (x150 x142 x142) x72) (= x92 (x150 x142 x72))) (= x14 (x150 x92 x92))))))
(assert (not (and (and (and (= (x150 x14 x72) x125) (= x72 (x150 x14 x14))) (= (x150 x125 x125) x92)) (= (x150 x92 x125) x142))))
(assert (not (and (and (and (= (x150 x14 x92) x142) (= x92 (x150 x14 x14))) (= x72 (x150 x142 x142))) (= x125 (x150 x72 x142)))))
(assert (not (and (and (= x142 (x150 x125 x125)) (and (= (x150 x14 x14) x72) (= (x150 x14 x72) x125))) (= (x150 x142 x125) x92))))
(assert (not (and (= x72 (x150 x92 x142)) (and (= x92 (x150 x142 x142)) (and (= (x150 x125 x125) x14) (= (x150 x125 x14) x142))))))
(assert (not (and (and (and (= x142 (x150 x72 x72)) (= x125 (x150 x72 x142))) (= (x150 x125 x125) x92)) (= (x150 x92 x125) x14))))
(assert (not (and (= (x150 x72 x14) x125) (and (and (= x14 (x150 x92 x142)) (= (x150 x92 x92) x142)) (= x72 (x150 x14 x14))))))
(assert (not (and (and (= (x150 x72 x72) x125) (and (= (x150 x142 x92) x72) (= (x150 x142 x142) x92))) (= x14 (x150 x125 x72)))))
(assert (not (and (= (x150 x125 x92) x14) (and (and (= (x150 x142 x142) x72) (= (x150 x142 x72) x92)) (= (x150 x92 x92) x125)))))
(assert (not (and (= (x150 x72 x92) x125) (and (= (x150 x92 x92) x72) (and (= x142 (x150 x14 x14)) (= (x150 x14 x142) x92))))))
(assert (not (and (and (= x125 (x150 x92 x92)) (and (= (x150 x14 x14) x142) (= (x150 x14 x142) x92))) (= x72 (x150 x125 x92)))))
(assert (and (not (= x92 x125)) (and (not (= x92 x142)) (and (and (not (= x14 x92)) (and (and (and (and (and (not (= x14 x72)) (not (= x72 x142))) (not (= x125 x72))) (not (= x92 x72))) (not (= x14 x142))) (not (= x14 x125)))) (not (= x142 x125))))))
(assert (not (and (and (= (x150 x142 x142) x92) (and (= x142 (x150 x14 x125)) (= (x150 x14 x14) x125))) (= (x150 x92 x142) x72))))
(assert (or (or (or (and (not (= (x150 x142 (x150 x142 x92)) x92)) (and (not (= x125 (x150 x142 (x150 x142 x125)))) (and (not (= (x150 x142 (x150 x142 x142)) x142)) (and (not (= x72 (x150 x142 (x150 x142 x72)))) (not (= (x150 x142 (x150 x142 x14)) x14)))))) (or (and (and (and (not (= x142 (x150 x72 (x150 x72 x142)))) (and (not (= (x150 x72 (x150 x72 x72)) x72)) (not (= (x150 x72 (x150 x72 x14)) x14)))) (not (= x125 (x150 x72 (x150 x72 x125))))) (not (= (x150 x72 (x150 x72 x92)) x92))) (and (not (= (x150 x14 (x150 x14 x92)) x92)) (and (and (and (not (= x72 (x150 x14 (x150 x14 x72)))) (not (= (x150 x14 (x150 x14 x14)) x14))) (not (= (x150 x14 (x150 x14 x142)) x142))) (not (= x125 (x150 x14 (x150 x14 x125)))))))) (and (and (and (not (= (x150 x125 (x150 x125 x142)) x142)) (and (not (= (x150 x125 (x150 x125 x72)) x72)) (not (= (x150 x125 (x150 x125 x14)) x14)))) (not (= x125 (x150 x125 (x150 x125 x125))))) (not (= (x150 x125 (x150 x125 x92)) x92)))) (and (not (= x92 (x150 x92 (x150 x92 x92)))) (and (and (not (= (x150 x92 (x150 x92 x142)) x142)) (and (not (= (x150 x92 (x150 x92 x14)) x14)) (not (= (x150 x92 (x150 x92 x72)) x72)))) (not (= x125 (x150 x92 (x150 x92 x125))))))))
(assert (or (and (not (= (x150 x92 x92) x92)) (and (and (and (not (= (x150 x14 x92) x14)) (not (= (x150 x72 x92) x72))) (not (= (x150 x142 x92) x142))) (not (= (x150 x125 x92) x125)))) (or (and (and (not (= x125 (x150 x125 x125))) (and (and (not (= x72 (x150 x72 x125))) (not (= x14 (x150 x14 x125)))) (not (= x142 (x150 x142 x125))))) (not (= (x150 x92 x125) x92))) (or (and (and (and (not (= (x150 x142 x142) x142)) (and (not (= (x150 x14 x142) x14)) (not (= (x150 x72 x142) x72)))) (not (= (x150 x125 x142) x125))) (not (= (x150 x92 x142) x92))) (or (and (and (not (= x125 (x150 x125 x14))) (and (not (= x142 (x150 x142 x14))) (and (not (= (x150 x14 x14) x14)) (not (= x72 (x150 x72 x14)))))) (not (= x92 (x150 x92 x14)))) (and (and (and (and (not (= x72 (x150 x72 x72))) (not (= x14 (x150 x14 x72)))) (not (= x142 (x150 x142 x72)))) (not (= (x150 x125 x72) x125))) (not (= x92 (x150 x92 x72)))))))))
(assert (not (and (= x72 (x150 x142 x92)) (and (= x142 (x150 x92 x92)) (and (= (x150 x125 x125) x14) (= (x150 x125 x14) x92))))))
(assert (not (and (= x92 (x150 x142 x125)) (and (= (x150 x125 x125) x142) (and (= x14 (x150 x72 x72)) (= x125 (x150 x72 x14)))))))
(assert (not (and (= x142 (x150 x125 x72)) (and (and (= x92 (x150 x14 x14)) (= x72 (x150 x14 x92))) (= x125 (x150 x72 x72))))))
(assert (not (and (= (x150 x125 x142) x92) (and (and (= (x150 x72 x14) x142) (= x14 (x150 x72 x72))) (= x125 (x150 x142 x142))))))
(assert (not (and (= (x150 x14 x125) x72) (and (and (= x92 (x150 x142 x142)) (= x125 (x150 x142 x92))) (= x14 (x150 x125 x125))))))
(assert (not (and (= x14 (x150 x72 x142)) (and (and (= (x150 x92 x92) x125) (= x142 (x150 x92 x125))) (= x72 (x150 x142 x142))))))
(assert (not (and (and (and (= (x150 x92 x125) x72) (= x125 (x150 x92 x92))) (= x142 (x150 x72 x72))) (= x14 (x150 x142 x72)))))
(assert (not (and (and (and (= (x150 x72 x125) x92) (= x125 (x150 x72 x72))) (= x142 (x150 x92 x92))) (= (x150 x142 x92) x14))))
(assert (not (and (= x142 (x150 x72 x125)) (and (and (= x92 (x150 x14 x14)) (= (x150 x14 x92) x125)) (= x72 (x150 x125 x125))))))
(assert (let ((x27 (x150 x142 x92)) (x86 (x150 x125 x72)) (x21 (x150 x142 x142)) (x48 (x150 x92 x125)) (x29 (x150 x72 x142)) (x34 (x150 x125 x14)) (x43 (x150 x14 x14)) (x70 (x150 x72 x92)) (x5 (x150 x125 x125)) (x96 (x150 x14 x125)) (x111 (x150 x14 x142)) (x108 (x150 x92 x142)) (x102 (x150 x14 x72)) (x129 (x150 x72 x72)) (x145 (x150 x72 x125)) (x60 (x150 x92 x14)) (x136 (x150 x125 x142)) (x4 (x150 x14 x92)) (x16 (x150 x142 x14)) (x82 (x150 x72 x14)) (x116 (x150 x92 x92)) (x93 (x150 x142 x125)) (x118 (x150 x142 x72)) (x80 (x150 x125 x92)) (x91 (x150 x92 x72))) (or (or (or (or (not (= x27 x108)) (or (not (= x60 x4)) (not (= x91 x70)))) (not (= x80 x48))) (not (= x116 x116))) (or (or (or (or (not (= x136 x93)) (or (not (= x21 x21)) (or (not (= x118 x29)) (not (= x111 x16))))) (not (= x27 x108))) (or (or (not (= x60 x4)) (or (or (not (= x111 x16)) (or (not (= x102 x82)) (not (= x43 x43)))) (not (= x34 x96)))) (or (not (= x91 x70)) (or (or (not (= x118 x29)) (or (not (= x129 x129)) (not (= x82 x102)))) (not (= x86 x145)))))) (or (or (or (not (= x136 x93)) (or (not (= x34 x96)) (not (= x145 x86)))) (not (= x5 x5))) (not (= x80 x48)))))))
(assert (not (and (= x142 (x150 x72 x14)) (and (= x72 (x150 x14 x14)) (and (= (x150 x92 x92) x125) (= x14 (x150 x92 x125)))))))
(assert (not (and (and (and (= (x150 x142 x92) x14) (= (x150 x142 x142) x92)) (= x125 (x150 x14 x14))) (= (x150 x125 x14) x72))))
(assert (not (and (and (= (x150 x72 x72) x125) (and (= x72 (x150 x142 x14)) (= (x150 x142 x142) x14))) (= x92 (x150 x125 x72)))))
(assert (not (and (and (= x125 (x150 x142 x142)) (and (= x142 (x150 x92 x72)) (= x72 (x150 x92 x92)))) (= x14 (x150 x125 x142)))))
(assert (not (and (= (x150 x14 x125) x72) (and (and (= (x150 x92 x92) x142) (= x125 (x150 x92 x142))) (= (x150 x125 x125) x14)))))
(assert (not (and (and (and (= x72 (x150 x142 x142)) (= (x150 x142 x72) x14)) (= (x150 x14 x14) x125)) (= x92 (x150 x125 x14)))))
(assert (not (and (and (= (x150 x14 x14) x92) (and (= x14 (x150 x72 x125)) (= (x150 x72 x72) x125))) (= (x150 x92 x14) x142))))
(assert (not (and (= x125 (x150 x14 x72)) (and (and (= x142 (x150 x92 x92)) (= (x150 x92 x142) x72)) (= (x150 x72 x72) x14)))))
(assert (not (and (and (= (x150 x72 x72) x125) (and (= x72 (x150 x14 x142)) (= x142 (x150 x14 x14)))) (= x92 (x150 x125 x72)))))
(assert (not (and (and (and (= (x150 x125 x72) x142) (= (x150 x125 x125) x72)) (= x92 (x150 x142 x142))) (= (x150 x92 x142) x14))))
(assert (not (and (and (and (= x14 (x150 x142 x92)) (= x92 (x150 x142 x142))) (= x72 (x150 x14 x14))) (= x125 (x150 x72 x14)))))
(assert (not (and (= x14 (x150 x92 x125)) (and (= x92 (x150 x125 x125)) (and (= (x150 x142 x72) x125) (= x72 (x150 x142 x142)))))))
(assert (not (and (= (x150 x72 x125) x142) (and (= (x150 x125 x125) x72) (and (= x14 (x150 x92 x92)) (= x125 (x150 x92 x14)))))))
(assert (not (and (and (and (= x125 (x150 x142 x14)) (= x14 (x150 x142 x142))) (= x92 (x150 x125 x125))) (= x72 (x150 x92 x125)))))
(assert (not (and (and (= x92 (x150 x142 x142)) (and (= x142 (x150 x72 x125)) (= x125 (x150 x72 x72)))) (= x14 (x150 x92 x142)))))
(assert (not (and (and (and (= x92 (x150 x72 x72)) (= x14 (x150 x72 x92))) (= x125 (x150 x14 x14))) (= (x150 x125 x14) x142))))
(assert (not (and (= x125 (x150 x142 x92)) (and (= (x150 x92 x92) x142) (and (= (x150 x72 x72) x14) (= (x150 x72 x14) x92))))))
(check-sat)
(exit)
